10
0 80 20 89 17 42 40 10 76 64 
80 0 52 49 36 5 92 83 1 32 
20 52 0 55 37 43 50 30 83 37 
89 49 55 0 85 42 5 27 19 7 
17 36 37 85 0 84 22 88 77 56 
42 5 43 42 84 0 83 5 55 79 
40 92 50 5 22 83 0 1 70 8 
10 83 30 27 88 5 1 0 57 77 
76 1 83 19 77 55 70 57 0 4 
64 32 37 7 56 79 8 77 4 0 
RBBBBRBRRR
